data;

param n:=22;
param p:=3;
param r:=[1] 0 [2] 1 [3] 4 [4] 0 [5] 1 [6] 7 [7] 9 [8] 18 [9] 12 [10] 22 [11] 12 [12] 18 [13] 10 [14] 17 [15] 35 [16] 36 [17] 37 [18] 30 [19] 6 [20] 36 [21] 27 [22] 39 ;
param w:=[1] 32 [2] 31 [3] 3 [4] 90 [5] 94 [6] 69 [7] 25 [8] 60 [9] 34 [10] 85 [11] 45 [12] 62 [13] 19 [14] 27 [15] 13 [16] 7 [17] 61 [18] 19 [19] 20 [20] 87 [21] 100 [22] 56 ;

end;
